width = 30;

n_circuits = 29;

circuit_x = array1d(1..29, [6, 2, 10, 4, 4, 7, 11, 6, 2, 6, 10, 11, 4, 7, 4, 7, 7,
    3, 6, 9, 1, 4, 6, 9, 2, 8, 3, 7, 5]);

circuit_y = array1d(1..29, [18, 12, 7, 23, 1, 7, 4, 5, 7, 11, 19, 5, 2, 5, 2, 12,
    13, 6, 10, 16, 4, 10, 24, 9, 1, 5, 5, 25, 21]);

opt_height = 60;

max_y = 25;

